10
2147483647 45 27 28 72 96 33 45 93 55 
45 2147483647 20 59 18 83 100 44 35 76 
27 20 2147483647 5 13 93 10 72 27 24 
28 59 5 2147483647 10 23 66 89 53 39 
72 18 13 10 2147483647 68 51 57 39 97 
96 83 93 23 68 2147483647 25 38 80 13 
33 100 10 66 51 25 2147483647 87 35 49 
45 44 72 89 57 38 87 2147483647 63 28 
93 35 27 53 39 80 35 63 2147483647 94 
55 76 24 39 97 13 49 28 94 2147483647 
